30
1 0 65
2 0 57
2 1 26
3 0 41
3 1 15
3 2 34
4 0 74
4 1 63
4 2 58
4 3 80
5 0 65
5 1 53
5 2 8
5 3 43
5 4 46
6 0 29
6 1 55
6 2 79
6 3 24
6 4 20
6 5 45
7 0 22
7 1 78
7 2 32
7 3 44
7 4 19
7 5 70
7 6 60
8 0 19
8 1 7
8 2 33
8 3 27
8 4 37
8 5 70
8 6 47
8 7 33
9 0 67
9 1 80
9 2 21
9 3 37
9 4 9
9 5 69
9 6 62
9 7 44
9 8 53
10 0 20
10 1 38
10 2 31
10 3 15
10 4 62
10 5 33
10 6 1
10 7 46
10 8 68
10 9 16
11 0 6
11 1 37
11 2 52
11 3 52
11 4 16
11 5 72
11 6 25
11 7 76
11 8 51
11 9 16
11 10 21
12 0 19
12 1 30
12 2 68
12 3 16
12 4 74
12 5 44
12 6 14
12 7 41
12 8 21
12 9 38
12 10 70
12 11 71
13 0 63
13 1 69
13 2 76
13 3 26
13 4 60
13 5 11
13 6 34
13 7 13
13 8 53
13 9 52
13 10 69
13 11 38
13 12 45
14 0 30
14 1 61
14 2 5
14 3 50
14 4 36
14 5 13
14 6 3
14 7 12
14 8 31
14 9 11
14 10 37
14 11 22
14 12 10
14 13 74
15 0 65
15 1 50
15 2 80
15 3 79
15 4 78
15 5 78
15 6 39
15 7 12
15 8 21
15 9 52
15 10 18
15 11 47
15 12 46
15 13 4
15 14 40
16 0 40
16 1 41
16 2 58
16 3 46
16 4 45
16 5 41
16 6 57
16 7 16
16 8 33
16 9 64
16 10 18
16 11 30
16 12 4
16 13 3
16 14 70
16 15 11
17 0 57
17 1 79
17 2 65
17 3 69
17 4 47
17 5 25
17 6 61
17 7 49
17 8 45
17 9 50
17 10 54
17 11 21
17 12 52
17 13 13
17 14 36
17 15 35
17 16 9
18 0 76
18 1 6
18 2 56
18 3 5
18 4 4
18 5 3
18 6 34
18 7 26
18 8 39
18 9 64
18 10 10
18 11 65
18 12 68
18 13 74
18 14 35
18 15 39
18 16 50
18 17 69
19 0 71
19 1 76
19 2 71
19 3 51
19 4 15
19 5 79
19 6 57
19 7 2
19 8 45
19 9 67
19 10 57
19 11 58
19 12 44
19 13 62
19 14 16
19 15 64
19 16 19
19 17 34
19 18 18
20 0 25
20 1 55
20 2 78
20 3 22
20 4 5
20 5 15
20 6 74
20 7 37
20 8 50
20 9 49
20 10 26
20 11 40
20 12 17
20 13 75
20 14 39
20 15 59
20 16 14
20 17 50
20 18 55
20 19 5
21 0 78
21 1 53
21 2 24
21 3 41
21 4 2
21 5 13
21 6 30
21 7 72
21 8 58
21 9 9
21 10 54
21 11 46
21 12 48
21 13 40
21 14 49
21 15 39
21 16 35
21 17 65
21 18 47
21 19 73
21 20 48
22 0 75
22 1 61
22 2 44
22 3 14
22 4 58
22 5 13
22 6 74
22 7 39
22 8 61
22 9 57
22 10 23
22 11 18
22 12 18
22 13 47
22 14 30
22 15 7
22 16 57
22 17 77
22 18 59
22 19 59
22 20 48
22 21 4
23 0 52
23 1 54
23 2 18
23 3 79
23 4 43
23 5 1
23 6 66
23 7 6
23 8 57
23 9 27
23 10 20
23 11 19
23 12 56
23 13 25
23 14 65
23 15 69
23 16 31
23 17 52
23 18 57
23 19 30
23 20 1
23 21 28
23 22 76
24 0 4
24 1 35
24 2 55
24 3 52
24 4 15
24 5 32
24 6 15
24 7 19
24 8 34
24 9 62
24 10 37
24 11 78
24 12 65
24 13 60
24 14 75
24 15 42
24 16 11
24 17 52
24 18 41
24 19 67
24 20 37
24 21 68
24 22 69
24 23 36
25 0 66
25 1 72
25 2 2
25 3 64
25 4 50
25 5 65
25 6 14
25 7 40
25 8 19
25 9 11
25 10 5
25 11 30
25 12 58
25 13 37
25 14 23
25 15 59
25 16 61
25 17 8
25 18 34
25 19 39
25 20 11
25 21 30
25 22 68
25 23 50
25 24 37
26 0 62
26 1 40
26 2 34
26 3 71
26 4 61
26 5 10
26 6 42
26 7 3
26 8 73
26 9 60
26 10 36
26 11 39
26 12 3
26 13 17
26 14 29
26 15 23
26 16 10
26 17 22
26 18 8
26 19 49
26 20 24
26 21 42
26 22 71
26 23 35
26 24 31
26 25 77
27 0 10
27 1 63
27 2 31
27 3 18
27 4 11
27 5 1
27 6 23
27 7 54
27 8 77
27 9 2
27 10 72
27 11 71
27 12 36
27 13 53
27 14 41
27 15 10
27 16 10
27 17 35
27 18 64
27 19 4
27 20 62
27 21 29
27 22 8
27 23 53
27 24 65
27 25 57
27 26 80
28 0 6
28 1 36
28 2 56
28 3 80
28 4 68
28 5 52
28 6 59
28 7 39
28 8 68
28 9 21
28 10 39
28 11 33
28 12 73
28 13 53
28 14 75
28 15 34
28 16 63
28 17 7
28 18 31
28 19 24
28 20 79
28 21 14
28 22 63
28 23 67
28 24 60
28 25 53
28 26 3
28 27 63
29 0 17
29 1 9
29 2 9
29 3 21
29 4 15
29 5 7
29 6 8
29 7 62
29 8 48
29 9 21
29 10 42
29 11 76
29 12 14
29 13 29
29 14 55
29 15 26
29 16 75
29 17 64
29 18 46
29 19 5
29 20 64
29 21 49
29 22 72
29 23 24
29 24 12
29 25 66
29 26 12
29 27 35
29 28 23
